1 1 1 1 1 0 0 0 1 
0 8 19 22 19 17 34 11 28 
8 0 13 15 37 14 39 15 20 
19 13 0 18 29 39 28 12 26 
22 15 18 0 17 39 25 8 40 
19 37 29 17 0 22 27 12 6 
17 14 39 39 22 0 26 30 28 
34 39 28 25 27 26 0 14 37 
11 15 12 8 12 30 14 0 37 
28 20 26 40 6 28 37 37 0 
4 2
1P 2P 6B 9P 5P 7B 8B 4P 3P = 142